40
    52     1    94    81    46    32     2     3    44    22    35     9    60    46    12    88    38    32    27    32    50    63    53    38    96    73    42     4     3    50    24    32    27    35     4    28    53    23    70   100
    10    10     2     1    10     2     1     4     2     1     3     9     5    10     9     4     9    10     4     8     9     4     5    10     3     5     2    10     3     8     1     9     2     8     9    10     2     2     8     6
  1839   685  1442  1414  1747   761  1405  1888  1750  1448  1292   737  1821  1696   897  1655   653  1330  1194  1001   738   695  1941  1384  1101   929  1236  1250  1072  1012   912   668   816  1936   897  1301  1214  1155   716  1817
